qe/outputs/qe/qe_queries_cbrdelay/T=5,eliminate=[I_0,I_1,I_2,I_3,I_4,L_2,L_3,L_4,C].smt2
; benchmark generated from python API
(set-info :status unknown)
(declare-fun S_3 () Real)
(declare-fun L_1 () Real)
(declare-fun A_3 () Real)
(declare-fun S_2 () Real)
(declare-fun A_2 () Real)
(declare-fun S_4 () Real)
(declare-fun B () Real)
(declare-fun A_4 () Real)
(declare-fun S_1 () Real)
(declare-fun A_1 () Real)
(declare-fun L_0 () Real)
(declare-fun S_0 () Real)
(declare-fun A_0 () Real)
(assert
 (let (($x2240 (<= (+ (* (- 1.0) A_4) A_2 (* (- 1.0) B) S_4 (* (- 1.0) S_3)) 0.0)))
 (let (($x34 (>= L_0 0.0)))
 (let (($x682 (>= B 5.0)))
 (let (($x35707 (<= (+ (* (/ 1.0 2.0) A_1) (* (- (/ 1.0 2.0)) L_1) (* (- (/ 1.0 2.0)) S_4)) (- 5.0))))
 (let (($x34606 (<= (+ A_2 (* (- 1.0) L_1) (* (- 1.0) S_4)) (- 5.0))))
 (let (($x874 (<= (+ A_3 (* (- 1.0) L_1) (* (- 1.0) S_4)) 0.0)))
 (let (($x311 (<= (+ (* (- (/ 1.0 3.0)) S_4) (* (/ 1.0 3.0) S_0)) (- 5.0))))
 (let (($x1521 (<= (+ A_2 (* (- 1.0) S_2) (* (- 1.0) B) (* (- 1.0) L_1)) 0.0)))
 (let (($x1037 (<= (+ A_3 (* (- 1.0) A_2) B (* (- 1.0) S_4) S_2) 0.0)))
 (let ((?x2283 (* 2.0 S_0)))
 (let ((?x1511 (* (- 3.0) S_2)))
 (let ((?x468 (* (- 1.0) B)))
 (let ((?x348 (* (- 1.0) A_3)))
 (let (($x886 (<= (+ A_1 (* (- 1.0) L_1) (* (- 1.0) S_2)) 0.0)))
 (let ((?x1507 (* (- 2.0) S_3)))
 (let ((?x451 (* (- 1.0) L_1)))
 (let ((?x344 (* (- 1.0) A_4)))
 (let ((?x1278 (* (/ 1.0 3.0) S_0)))
 (let ((?x375 (* (- 1.0) S_3)))
 (let ((?x1285 (* (/ 2.0 3.0) S_4)))
 (let ((?x8353 (* (- (/ 2.0 3.0)) B)))
 (let ((?x16287 (* (/ 2.0 3.0) A_3)))
 (let ((?x8746 (* (- (/ 2.0 3.0)) A_4)))
 (let (($x880 (<= (+ A_2 ?x451 ?x375) 0.0)))
 (let (($x36929 (or $x880 (<= (+ ?x8746 ?x16287 ?x8353 ?x1285 ?x375 ?x1278) 0.0) (<= (+ ?x344 A_3 A_1 ?x451 ?x468 S_4 ?x1507) 0.0))))
 (let (($x21894 (<= (+ A_2 (* (- 1.0) A_0) ?x451 (* (- 1.0) S_4) S_1 L_0) 0.0)))
 (let (($x7567 (<= (+ (* (- 1.0) A_0) (* (- (/ 1.0 2.0)) S_4) (* (/ 3.0 2.0) S_1) L_0) 0.0)))
 (let (($x36879 (or $x874 $x7567 $x21894 (<= 0.0 (+ ?x348 A_2 ?x468 (* (/ 1.0 2.0) S_4) (* (- (/ 1.0 2.0)) S_1))))))
 (let ((?x954 (* (- 1.0) S_0)))
 (let ((?x3559 (* 3.0 S_1)))
 (let ((?x1072 (* (- 2.0) S_4)))
 (let ((?x1663 (* 2.0 B)))
 (let ((?x1070 (* (- 2.0) A_2)))
 (let ((?x1069 (* 2.0 A_3)))
 (let (($x36876 (or $x874 (<= (+ (* (- 1.0) S_4) (* 2.0 S_1) ?x954) 0.0) (<= (+ (* 2.0 A_2) (* (- 2.0) L_1) ?x1072 S_1 ?x954) 0.0) (<= (+ ?x1069 ?x1070 ?x1663 ?x1072 ?x3559 ?x954) 0.0))))
 (let (($x1664 (<= (+ A_2 ?x375 ?x468 ?x451) 0.0)))
 (let (($x60887 (or $x886 (<= (+ (* (- 1.0) A_2) L_1 S_4 (* (- 2.0) S_2) ?x2283) 0.0))))
 (let (($x19996 (<= (+ ?x348 A_2 ?x468 S_4 (* (- (/ 3.0 2.0)) S_3) (* (/ 1.0 2.0) S_0)) 0.0)))
 (let (($x38311 (or $x1664 (<= (+ ?x348 A_2 A_1 ?x451 ?x468 S_4 ?x1507) 0.0) $x19996)))
 (let (($x35054 (<= 0.0 (+ (* (- 1.0) A_1) L_1 (* (/ 1.0 2.0) S_3) (* (/ 1.0 2.0) S_0)))))
 (let (($x36672 (or $x880 (<= (+ ?x348 L_1 S_4 (* (- (/ 1.0 2.0)) S_3) (* (/ 1.0 2.0) S_0)) 0.0) $x35054)))
 (let ((?x6046 (* (/ 1.0 2.0) S_0)))
 (let ((?x386 (* (- 1.0) S_2)))
 (let ((?x5251 (* (/ 1.0 2.0) S_4)))
 (let ((?x5143 (* (- (/ 1.0 2.0)) B)))
 (let ((?x7439 (* (/ 1.0 2.0) A_2)))
 (let ((?x7358 (* (- (/ 1.0 2.0)) A_4)))
 (let ((?x3590 (* 2.0 S_1)))
 (let ((?x364 (* (- 1.0) S_4)))
 (let ((?x891 (* (- 1.0) A_0)))
 (let ((?x352 (* (- 1.0) A_2)))
 (let ((?x1074 (* (- 3.0) L_1)))
 (let ((?x1661 (* (- 3.0) B)))
 (let (($x1691 (<= (+ (* 3.0 A_2) ?x891 ?x1072 ?x1661 L_0 ?x1074) 0.0)))
 (let (($x36523 (or $x874 $x1691 $x7567 (<= (+ A_3 ?x352 ?x891 B ?x364 ?x3590 L_0) 0.0))))
 (let (($x14587 (<= (+ (* 2.0 A_1) (* (- 2.0) L_1) S_4 (* (- 3.0) S_3)) 0.0)))
 (let (($x36075 (or $x880 (<= (+ (* (- (/ 1.0 2.0)) S_3) ?x6046) (- 5.0)) (<= (+ A_1 ?x451 ?x375) (- 5.0)))))
 (let (($x16126 (<= (+ ?x352 (* (- 2.0) A_1) (* 3.0 L_1) S_4 ?x2283 ?x1663) 0.0)))
 (let (($x898 (= (+ L_1 (* (- 1.0) L_0)) 0.0)))
 (let ((?x9254 (+ (* (- 4.0) A_1) S_4 (* 3.0 S_0) (* 4.0 B) (* 4.0 L_1))))
 (let (($x18812 (<= (+ (* (- (/ 1.0 2.0)) A_3) ?x7439 ?x5143 (* (/ 1.0 2.0) S_3) ?x386 ?x6046) 0.0)))
 (let (($x2340 (<= (+ ?x348 A_2 (* (- 3.0) A_1) ?x1663 S_4 ?x2283 (* 3.0 L_1)) 0.0)))
 (let (($x17827 (<= (+ ?x344 A_3 (* (- 3.0) A_1) ?x1663 S_4 ?x2283 (* 3.0 L_1)) 0.0)))
 (let ((?x5276 (* (- (/ 3.0 2.0)) L_1)))
 (let ((?x5297 (* (- (/ 3.0 2.0)) B)))
 (let ((?x5316 (* (- (/ 1.0 2.0)) S_4)))
 (let ((?x4062 (* (/ 3.0 2.0) A_1)))
 (let (($x5225 (<= (+ ?x4062 ?x891 ?x5316 ?x5297 L_0 ?x5276) 0.0)))
 (let (($x59609 (or $x874 $x5225 (<= (+ A_2 A_1 ?x891 (* (- 2.0) L_1) ?x364 ?x468 L_0) 0.0) (not (<= 0.0 (+ ?x352 (* 2.0 A_1) ?x891 ?x468 L_0 ?x451))))))
 (let (($x2322 (<= (+ ?x348 (* (- 1.0) A_1) (* 2.0 L_1) S_4 S_0 B) 0.0)))
 (let (($x18526 (<= (+ ?x344 A_3 ?x352 (* (- 1.0) A_1) (* 2.0 L_1) S_4 S_0) 0.0)))
 (let (($x35747 (or $x886 (<= (+ ?x344 A_3 ?x352 L_1 ?x468 S_4 ?x386 S_0) 0.0))))
 (let (($x17066 (<= (+ ?x352 (* (- 1.0) A_1) (* 2.0 L_1) B S_3 S_0) 0.0)))
 (let (($x9772 (<= (+ (* (- 3.0) A_1) S_3 ?x2283 (* 3.0 B) (* 3.0 L_1)) 0.0)))
 (let (($x5787 (<= (+ A_2 A_1 (* (- 2.0) L_1) ?x364 (* (- 1.0) S_1) ?x468) 0.0)))
 (let ((?x1013 (* (- 2.0) L_1)))
 (let ((?x397 (* (- 1.0) S_1)))
 (let ((?x1052 (* 2.0 A_1)))
 (let (($x59415 (or $x874 (<= (+ A_3 ?x352 ?x1052 ?x468 ?x364 ?x397 ?x1013) 0.0) (<= (+ ?x4062 ?x5316 ?x397 ?x5297 ?x5276) 0.0) $x5787)))
 (let (($x60235 (or $x880 (<= (+ ?x344 A_3 A_1 (* (- 2.0) B) S_4 ?x1507 ?x451) 0.0))))
 (let (($x38044 (or $x874 (<= (+ ?x1069 ?x1070 (* 3.0 A_1) ?x468 ?x1072 ?x954 ?x1074) 0.0) (<= (+ ?x1052 ?x364 ?x954 (* (- 2.0) B) ?x1013) 0.0) (<= (+ (* 2.0 A_2) A_1 ?x1074 ?x1072 ?x954 ?x468) 0.0))))
 (let (($x14653 (or $x874 $x1037 (<= (+ (* (- (/ 1.0 2.0)) A_1) (* (/ 1.0 2.0) L_1) ?x5316 S_2) 0.0))))
 (let (($x11945 (or $x874 $x1037 (<= (+ (* (- 3.0) S_4) (* 4.0 S_2) ?x954) 0.0))))
 (let (($x38758 (or $x874 (<= (+ A_3 ?x352 ?x1052 ?x891 ?x468 ?x364 L_0 ?x1013) 0.0) $x1691 $x5225)))
 (let (($x2290 (<= (+ ?x348 A_2 (* (- 2.0) A_1) B S_3 S_0 (* 2.0 L_1)) 0.0)))
 (let (($x59333 (or $x898 (<= (+ (* (- 2.0) A_1) ?x1663 S_2 S_0 (* 2.0 L_1)) 0.0))))
 (let (($x5235 (<= (+ (* (- (/ 1.0 2.0)) A_1) ?x5316 S_2 (* (/ 1.0 2.0) B) (* (/ 1.0 2.0) L_1)) 0.0)))
 (let (($x34370 (or $x874 (<= (+ (* (/ 1.0 2.0) A_1) ?x5316 ?x5143 (* (- (/ 1.0 2.0)) L_1)) (- 5.0)))))
 (let (($x59161 (or $x880 (<= (+ ?x1052 S_4 (* (- 3.0) S_3) (* (- 2.0) B) ?x1013) 0.0))))
 (let (($x43898 (or (<= (+ ?x348 A_2 A_1 (* (- 2.0) B) S_4 ?x1507 ?x451) 0.0) $x1664)))
 (let (($x2710 (<= (+ ?x344 A_2 (* (- 2.0) A_1) B S_4 S_0 (* 2.0 L_1)) 0.0)))
 (let ((?x720 (+ L_0 ?x451)))
 (let (($x333 (<= 0.0 ?x720)))
 (let (($x96 (>= S_1 S_0)))
 (let (($x99 (>= S_2 S_1)))
 (let (($x102 (>= S_3 S_2)))
 (let (($x105 (>= S_4 S_3)))
 (let (($x107 (>= A_1 A_0)))
 (let (($x108 (>= A_2 A_1)))
 (let (($x109 (>= A_3 A_2)))
 (let (($x110 (>= A_4 A_3)))
 (and $x110 $x109 $x108 $x107 $x105 $x102 $x99 $x96 (or $x333 (<= (+ (* (- 1.0) A_1) B S_1 L_1) 0.0)) (or $x880 (<= (+ ?x1052 ?x891 (* (- 2.0) B) ?x375 L_0 ?x1013) 0.0)) (or $x333 $x2710) (<= (+ A_1 ?x468 ?x386 ?x451) 0.0) (<= (+ A_1 ?x468 ?x375 ?x451) (- 5.0)) (or $x880 (<= (+ ?x375 S_1) (- 5.0))) (or $x880 (<= (+ (* 3.0 A_1) ?x1661 ?x1507 ?x954 ?x1074) 0.0)) (or $x880 (<= (+ ?x1052 (* (- 2.0) B) ?x375 ?x397 ?x1013) 0.0)) (or (not $x333) $x898) (or $x880 (<= (+ ?x1507 ?x3559 ?x954) 0.0)) $x43898 (or $x886 (<= (+ ?x348 L_1 S_4 ?x386 S_0) 0.0)) $x59161 $x34370 (or $x886 (<= (+ ?x386 S_0) (- 5.0))) (or $x898 (<= (+ (* (- 1.0) A_1) L_1 S_0 B) (- 5.0))) (or $x874 $x898 $x1037 $x5235) (or $x874 $x1037 (<= (+ ?x1072 (* 3.0 S_2) ?x397) 0.0)) (or $x880 (<= (+ ?x891 ?x375 ?x3590 L_0) 0.0)) $x59333 (or $x898 $x2290) $x38758 (or $x874 $x1037 (<= (+ ?x891 ?x1072 (* 3.0 S_2) L_0) 0.0)) $x11945 $x14653 $x38044 (or $x880 (<= (+ S_4 (* (- 3.0) S_3) ?x3590) 0.0)) (or $x874 (<= (+ ?x364 S_2) (- 5.0))) (or $x874 $x34606 (<= (+ ?x5316 (* (/ 1.0 2.0) S_1)) (- 5.0))) (or $x886 (<= (+ (* (/ 1.0 3.0) S_3) ?x386 (* (/ 2.0 3.0) S_0)) 0.0)) (or $x886 (<= (+ (* (/ 1.0 4.0) S_4) ?x386 (* (/ 3.0 4.0) S_0)) 0.0)) $x60235 $x59415 (or $x898 $x9772) (or $x898 $x17066) (or $x886 (<= (+ ?x352 L_1 S_3 ?x386 S_0) 0.0)) $x35747 (or $x886 (<= (+ ?x344 A_3 ?x468 S_4 ?x1511 ?x2283) 0.0)) (or $x898 $x18526) (or $x880 (<= (+ ?x348 L_1 S_4 ?x375 S_1) 0.0)) (or $x880 (<= (+ ?x348 A_1 S_4 ?x375 ?x468) 0.0)) (or $x898 $x2322) $x59609 (or $x898 $x17827) (or $x898 $x2340) (or $x886 $x18812) (or $x898 (<= ?x9254 0.0)) (or $x898 $x16126) $x36075 (or $x311 $x874 (not (<= (- 5.0) (+ ?x348 A_2))) $x35707) (or $x880 (<= (+ ?x5251 ?x375 ?x6046) 0.0) $x14587) $x36523 (or $x886 (<= (+ ?x7358 ?x7439 ?x5143 ?x5251 ?x386 ?x6046) 0.0)) $x36672 (or $x880 (<= (+ ?x348 A_1 S_4 ?x375) 0.0) (not $x35054)) $x38311 $x60887 (or $x1664 (<= (+ ?x348 A_2 ?x468 S_4 ?x1507 S_1) 0.0)) $x36876 $x36879 (or $x880 (<= (+ ?x344 A_3 ?x468 S_4 ?x1507 S_1) 0.0)) $x36929 (or $x886 (<= (+ ?x348 A_2 ?x468 S_4 ?x1511 ?x2283) 0.0)) (or $x311 $x1037 $x1521 $x35707) (or $x311 $x874 $x34606 $x35707) $x682 $x34 (<= (+ ?x891 S_0 L_0) 0.0) (<= (+ (* (- 1.0) A_1) L_1 S_1) 0.0) (<= (+ ?x344 L_1 S_4) 0.0) $x2240 (<= (+ ?x352 L_1 S_2) 0.0) (<= (+ ?x348 L_1 S_3) 0.0))))))))))))))))))))))))))))))))))))))))))))))))))))))))))))))))))))))))))))))))))))))))))))))))))))))))
(check-sat)
